sing20231130.12
TTAA  80111 48698
99007 26418 34008 00090 26212 28510 92776 22003 01016
85511 18614 06008 70158 09209 05512 50589 03747 09021
40762 14143 09518 30974 27138 16010 25103 37334 15023
20253 50937 14019 15433 67738 15027 10666 83734 08023
88112 82534 10533
77999=
TTCC  80115 48698
70869 77540 26545 50065 71156 13519
88999
77999=
TTDD  8011/ 48698
11970 79757 22923 80743 33882 81340 44844 76358 55809 76150
66765 74556 77714 77336 88671 76156 99599 77341 11568 74357
22540 75149 33522 71957 44481 70956
21212 11987 08025 22946 14018 33898 18025 44863 20518 55840
27019 66799 27019 77706 26045 88639 29037 99580 29018 11569
31014 22554 36016 33529 01510 44515 10514 55509 12516 66492
14023 77481 11521=
